100
5 8 8 9 10 6 7 6 6 7 5 4 4 9 1 7 5 9 2 10 10 9 8 4 3 2 1 4 1 6 5 10 4 7 4 6 9 1 4 10 2 9 10 1 4 1 4 10 9 1 6 2 4 9 2 5 8 2 2 3 3 4 6 2 10 7 3 8 10 6 8 2 10 8 7 9 3 7 4 6 6 4 3 8 10 1 10 10 5 4 2 2 7 9 5 7 5 3 7 8
10 9 1 3 8 6 3 7 5 3 6 6 2 2 1 4 6 5 6 3 4 4 7 7 5 7 6 6 5 4 1 6 3 2 1 1 3 4 3 3 7 9 7 9 1 8 3 3 7 8 1 4 10 3 10 10 3 3 4 4 3 7 7 8 5 9 3 2 3 9 10 6 8 6 1 10 8 3 9 8 7 5 7 8 7 1 1 3 6 10 3 7 1 3 4 1 3 10 5 6
455.2